sat
(
  (define-fun C1_VM2 () Int
    0)
  (define-fun C1_VM3 () Int
    1)
  (define-fun PriceProv3 () Int
    210)
  (define-fun C1_VM4 () Int
    0)
  (define-fun ProcProv3 () Int
    4)
  (define-fun PriceProv4 () Int
    210)
  (define-fun C5_VM5 () Int
    0)
  (define-fun MemProv3 () Int
    7500)
  (define-fun C3_VM5 () Int
    0)
  (define-fun C5_VM2 () Int
    0)
  (define-fun C3_VM3 () Int
    0)
  (define-fun MemProv2 () Int
    3750)
  (define-fun C3_VM2 () Int
    0)
  (define-fun C2_VM1 () Int
    0)
  (define-fun VM2Type () Int
    225)
  (define-fun StorageProv3 () Int
    2000)
  (define-fun StorageProv4 () Int
    2000)
  (define-fun PriceProv2 () Int
    126)
  (define-fun PriceProv1 () Int
    210)
  (define-fun C4_VM2 () Int
    0)
  (define-fun PriceProv5 () Int
    126)
  (define-fun C4_VM5 () Int
    1)
  (define-fun StorageProv5 () Int
    2000)
  (define-fun C4_VM4 () Int
    0)
  (define-fun MemProv5 () Int
    3750)
  (define-fun ProcProv5 () Int
    2)
  (define-fun C3_VM1 () Int
    0)
  (define-fun VM5Type () Int
    225)
  (define-fun C2_VM5 () Int
    0)
  (define-fun C2_VM2 () Int
    1)
  (define-fun C4_VM3 () Int
    0)
  (define-fun ProcProv4 () Int
    4)
  (define-fun C3_VM4 () Int
    1)
  (define-fun MemProv4 () Int
    7500)
  (define-fun StorageProv2 () Int
    2000)
  (define-fun C5_VM3 () Int
    0)
  (define-fun C1_VM5 () Int
    0)
  (define-fun C2_VM3 () Int
    0)
  (define-fun MemProv1 () Int
    7500)
  (define-fun C2_VM4 () Int
    0)
  (define-fun VM3Type () Int
    182)
  (define-fun ProcProv1 () Int
    4)
  (define-fun StorageProv1 () Int
    2000)
  (define-fun C5_VM4 () Int
    0)
  (define-fun VM1Type () Int
    182)
  (define-fun C4_VM1 () Int
    0)
  (define-fun VM4Type () Int
    182)
  (define-fun ProcProv2 () Int
    2)
  (define-fun C5_VM1 () Int
    1)
  (define-fun C1_VM1 () Int
    0)
)
(objectives
 ( 20)
 ((+ 0 PriceProv1 PriceProv2 PriceProv3 PriceProv4 PriceProv5) 882)
)
(:added-eqs                   136482
 :arith-eq-adapter            130611
 :arith-bound-propagations-lp 1544
 :arith-conflicts             158
 :arith-diseq                 179333
 :arith-fixed-eqs             1078
 :arith-lower                 252009
 :arith-make-feasible         62499
 :arith-max-columns           337
 :arith-max-rows              17
 :arith-upper                 115462
 :binary-propagations         521798
 :bv-bit2core                 5741
 :bv-dynamic-diseqs           194052
 :bv->core-eq                 792
 :conflicts                   2551
 :decisions                   138498
 :del-clause                  546126
 :final-checks                47
 :max-memory                  57.96
 :maxsat-cores                12
 :memory                      56.40
 :minimized-lits              4109
 :mk-bool-var                 259824
 :mk-clause                   547322
 :mk-clause-binary            7011
 :num-allocs                  1444853024
 :num-checks                  93
 :pb-conflicts                20
 :pb-predicates               4
 :pb-propagations             374
 :pb-resolves                 20
 :propagations                706959
 :restarts                    10
 :rlimit-count                8421964
 :solve-eqs-elim-vars         2
 :solve-eqs-steps             16
 :time                        1.24
 :total-time                  1.22)
